3	25
176	203	921	882	715	895	48	533	424	932	79	367	986	584	172	802	374	600	739	785	786	845	134	83	482	
878	260	860	925	580	963	882	794	386	331	329	871	26	981	233	907	830	623	302	748	343	516	644	150	569	
1245	1245	1245	
